WARNING: for repeatability, setting FPU to use double precision
============================[ Problem Statistics ]=============================
|                                                                             |
|  Number of variables:           100                                         |
|  Number of clauses:             449                                         |
|  Parse time:                   0.00 s                                       |
|  Eliminated clauses:           0.00 Mb                                      |
|  Simplification time:          0.00 s                                       |
|                                                                             |
============================[ Search Statistics ]==============================
| Conflicts |          ORIGINAL         |          LEARNT          | Progress |
|           |    Vars  Clauses Literals |    Limit  Clauses Lit/Cl |          |
===============================================================================
|       100 |      97      444     1351 |      162      100      7 |  0.010 % |
|       250 |      97      444     1351 |      179      164      7 |  0.010 % |
===============================================================================
restarts              : 3
conflicts             : 301            (103936 /sec)
decisions             : 371            (0.00 % random) (128108 /sec)
propagations          : 6884           (2377072 /sec)
conflict literals     : 2122           (14.85 % deleted)
Memory used           : 13.00 MB
CPU time              : 0.002896 s

SATISFIABLE
